(set-info :source |printed by MathSAT|)
(declare-fun |sum::n__param__@2| () (_ BitVec 32))
(declare-fun |sum::m__param__@2| () (_ BitVec 32))
(declare-fun |sum::n@2| () (_ BitVec 32))
(declare-fun |sum::m@2| () (_ BitVec 32))
(declare-fun |sum::n__param__@3| () (_ BitVec 32))
(declare-fun |sum::m__param__@3| () (_ BitVec 32))
(declare-fun |sum::__retval__@2| () (_ BitVec 32))
(declare-fun |sum::n@3| () (_ BitVec 32))
(declare-fun |sum::m@3| () (_ BitVec 32))
(declare-fun |sum::n__param__@4| () (_ BitVec 32))
(declare-fun |sum::m__param__@4| () (_ BitVec 32))
(declare-fun |sum::n@4| () (_ BitVec 32))
(declare-fun |sum::m@4| () (_ BitVec 32))
(declare-fun |sum::n__param__@5| () (_ BitVec 32))
(declare-fun |sum::m__param__@5| () (_ BitVec 32))
(declare-fun |sum::n@5| () (_ BitVec 32))
(declare-fun |sum::m@5| () (_ BitVec 32))
(declare-fun |sum::n__param__@6| () (_ BitVec 32))
(declare-fun |sum::m__param__@6| () (_ BitVec 32))
(declare-fun |sum::n@6| () (_ BitVec 32))
(declare-fun |sum::m@6| () (_ BitVec 32))
(declare-fun |sum::n__param__@7| () (_ BitVec 32))
(declare-fun |sum::m__param__@7| () (_ BitVec 32))
(declare-fun |sum::n@7| () (_ BitVec 32))
(declare-fun |sum::m@7| () (_ BitVec 32))
(declare-fun |sum::n__param__@8| () (_ BitVec 32))
(declare-fun |sum::m__param__@8| () (_ BitVec 32))
(declare-fun |sum::n@8| () (_ BitVec 32))
(declare-fun |sum::m@8| () (_ BitVec 32))
(declare-fun |sum::n__param__@9| () (_ BitVec 32))
(declare-fun |sum::m__param__@9| () (_ BitVec 32))
(declare-fun |sum::n@9| () (_ BitVec 32))
(declare-fun |sum::m@9| () (_ BitVec 32))
(declare-fun |sum::n__param__@10| () (_ BitVec 32))
(declare-fun |sum::m__param__@10| () (_ BitVec 32))
(declare-fun |sum::n@10| () (_ BitVec 32))
(declare-fun |sum::m@10| () (_ BitVec 32))
(declare-fun |sum::n__param__@11| () (_ BitVec 32))
(declare-fun |sum::m__param__@11| () (_ BitVec 32))
(declare-fun |sum::n@11| () (_ BitVec 32))
(declare-fun |sum::m@11| () (_ BitVec 32))
(declare-fun |sum::n__param__@12| () (_ BitVec 32))
(declare-fun |sum::m__param__@12| () (_ BitVec 32))
(declare-fun |sum::n@12| () (_ BitVec 32))
(declare-fun |sum::m@12| () (_ BitVec 32))
(declare-fun |sum::n__param__@13| () (_ BitVec 32))
(declare-fun |sum::m__param__@13| () (_ BitVec 32))
(declare-fun |sum::n@13| () (_ BitVec 32))
(declare-fun |sum::m@13| () (_ BitVec 32))
(declare-fun |sum::n__param__@14| () (_ BitVec 32))
(declare-fun |sum::m__param__@14| () (_ BitVec 32))
(declare-fun |sum::n@14| () (_ BitVec 32))
(declare-fun |sum::m@14| () (_ BitVec 32))
(declare-fun |sum::n__param__@15| () (_ BitVec 32))
(declare-fun |sum::m__param__@15| () (_ BitVec 32))
(declare-fun |sum::n@15| () (_ BitVec 32))
(declare-fun |sum::m@15| () (_ BitVec 32))
(declare-fun |sum::n__param__@16| () (_ BitVec 32))
(declare-fun |sum::m__param__@16| () (_ BitVec 32))
(declare-fun |sum::n@16| () (_ BitVec 32))
(declare-fun |sum::m@16| () (_ BitVec 32))
(declare-fun |sum::n__param__@17| () (_ BitVec 32))
(declare-fun |sum::m__param__@17| () (_ BitVec 32))
(declare-fun |sum::n@17| () (_ BitVec 32))
(declare-fun |sum::m@17| () (_ BitVec 32))
(declare-fun |sum::n__param__@18| () (_ BitVec 32))
(declare-fun |sum::m__param__@18| () (_ BitVec 32))
(declare-fun |sum::n@18| () (_ BitVec 32))
(declare-fun |sum::m@18| () (_ BitVec 32))
(declare-fun |sum::n__param__@19| () (_ BitVec 32))
(declare-fun |sum::m__param__@19| () (_ BitVec 32))
(declare-fun |sum::n@19| () (_ BitVec 32))
(declare-fun |sum::m@19| () (_ BitVec 32))
(declare-fun |sum::n__param__@20| () (_ BitVec 32))
(declare-fun |sum::m__param__@20| () (_ BitVec 32))
(declare-fun |sum::n@20| () (_ BitVec 32))
(declare-fun |sum::m@20| () (_ BitVec 32))
(declare-fun |sum::n__param__@21| () (_ BitVec 32))
(declare-fun |sum::m__param__@21| () (_ BitVec 32))
(declare-fun |sum::n@21| () (_ BitVec 32))
(declare-fun |sum::m@21| () (_ BitVec 32))
(declare-fun |sum::n__param__@22| () (_ BitVec 32))
(declare-fun |sum::m__param__@22| () (_ BitVec 32))
(declare-fun |sum::n@22| () (_ BitVec 32))
(declare-fun |sum::m@22| () (_ BitVec 32))
(declare-fun |sum::iVar1@23| () (_ BitVec 32))
(declare-fun |sum::__retval__@3| () (_ BitVec 32))
(declare-fun |sum::__retval__@4| () (_ BitVec 32))
(declare-fun |sum::__retval__@5| () (_ BitVec 32))
(declare-fun |sum::__retval__@6| () (_ BitVec 32))
(declare-fun |sum::__retval__@7| () (_ BitVec 32))
(declare-fun |sum::__retval__@8| () (_ BitVec 32))
(declare-fun |sum::__retval__@9| () (_ BitVec 32))
(declare-fun |sum::__retval__@10| () (_ BitVec 32))
(declare-fun |sum::__retval__@11| () (_ BitVec 32))
(declare-fun |sum::__retval__@12| () (_ BitVec 32))
(declare-fun |sum::__retval__@13| () (_ BitVec 32))
(declare-fun |sum::__retval__@14| () (_ BitVec 32))
(declare-fun |sum::__retval__@15| () (_ BitVec 32))
(declare-fun |sum::__retval__@16| () (_ BitVec 32))
(declare-fun |sum::__retval__@17| () (_ BitVec 32))
(declare-fun |sum::__retval__@18| () (_ BitVec 32))
(declare-fun |sum::__retval__@19| () (_ BitVec 32))
(declare-fun |sum::__retval__@20| () (_ BitVec 32))
(declare-fun |sum::__retval__@21| () (_ BitVec 32))
(declare-fun |sum::__retval__@22| () (_ BitVec 32))
(declare-fun |sum::iVar1@25| () (_ BitVec 32))
(declare-fun |sum::iVar1@27| () (_ BitVec 32))
(declare-fun |sum::iVar1@29| () (_ BitVec 32))
(declare-fun |sum::iVar1@31| () (_ BitVec 32))
(declare-fun |sum::iVar1@33| () (_ BitVec 32))
(declare-fun |sum::iVar1@35| () (_ BitVec 32))
(declare-fun |sum::iVar1@37| () (_ BitVec 32))
(declare-fun |sum::iVar1@39| () (_ BitVec 32))
(declare-fun |sum::iVar1@41| () (_ BitVec 32))
(declare-fun |sum::iVar1@43| () (_ BitVec 32))
(declare-fun |sum::iVar1@45| () (_ BitVec 32))
(declare-fun |sum::iVar1@47| () (_ BitVec 32))
(declare-fun |sum::iVar1@49| () (_ BitVec 32))
(declare-fun |sum::iVar1@51| () (_ BitVec 32))
(declare-fun |sum::iVar1@53| () (_ BitVec 32))
(declare-fun |sum::iVar1@55| () (_ BitVec 32))
(declare-fun |sum::iVar1@57| () (_ BitVec 32))
(declare-fun |sum::iVar1@59| () (_ BitVec 32))
(declare-fun |sum::iVar1@61| () (_ BitVec 32))
(declare-fun |sum::iVar1@63| () (_ BitVec 32))
(declare-fun |main::iVar1@24| () (_ BitVec 32))
(assert (let ((.def_19 (= |sum::m__param__@2| |sum::m@2|)))(let ((.def_17 (= |sum::n__param__@2| |sum::n@2|)))(let ((.def_20 (and .def_17 .def_19)))(let ((.def_14 (= |sum::m__param__@2| (_ bv0 32))))(let ((.def_12 (= |sum::n__param__@2| (_ bv20 32))))(let ((.def_15 (and .def_12 .def_14)))(let ((.def_608 (and .def_15 .def_20)))(let ((.def_22 (bvslt |sum::n@2| (_ bv1 32))))(let ((.def_25 (not .def_22)))(let ((.def_609 (and .def_25 .def_608)))(let ((.def_34 (bvadd (_ bv1 32) |sum::m@2|)))(let ((.def_36 (= .def_34 |sum::m__param__@3|)))(let ((.def_30 (bvadd (_ bv4294967295 32) |sum::n@2|)))(let ((.def_32 (= .def_30 |sum::n__param__@3|)))(let ((.def_37 (and .def_32 .def_36)))(let ((.def_610 (and .def_37 .def_609)))(let ((.def_76 (= |sum::m__param__@3| |sum::m@3|)))(let ((.def_74 (= |sum::n__param__@3| |sum::n@3|)))(let ((.def_77 (and .def_74 .def_76)))(let ((.def_611 (and .def_77 .def_610)))(let ((.def_78 (bvslt |sum::n@3| (_ bv1 32))))(let ((.def_80 (not .def_78)))(let ((.def_612 (and .def_80 .def_611)))(let ((.def_88 (bvadd (_ bv1 32) |sum::m@3|)))(let ((.def_90 (= .def_88 |sum::m__param__@4|)))(let ((.def_84 (bvadd (_ bv4294967295 32) |sum::n@3|)))(let ((.def_86 (= .def_84 |sum::n__param__@4|)))(let ((.def_91 (and .def_86 .def_90)))(let ((.def_613 (and .def_91 .def_612)))(let ((.def_95 (= |sum::m__param__@4| |sum::m@4|)))(let ((.def_93 (= |sum::n__param__@4| |sum::n@4|)))(let ((.def_96 (and .def_93 .def_95)))(let ((.def_614 (and .def_96 .def_613)))(let ((.def_97 (bvslt |sum::n@4| (_ bv1 32))))(let ((.def_99 (not .def_97)))(let ((.def_615 (and .def_99 .def_614)))(let ((.def_107 (bvadd (_ bv1 32) |sum::m@4|)))(let ((.def_109 (= .def_107 |sum::m__param__@5|)))(let ((.def_103 (bvadd (_ bv4294967295 32) |sum::n@4|)))(let ((.def_105 (= .def_103 |sum::n__param__@5|)))(let ((.def_110 (and .def_105 .def_109)))(let ((.def_616 (and .def_110 .def_615)))(let ((.def_114 (= |sum::m__param__@5| |sum::m@5|)))(let ((.def_112 (= |sum::n__param__@5| |sum::n@5|)))(let ((.def_115 (and .def_112 .def_114)))(let ((.def_617 (and .def_115 .def_616)))(let ((.def_116 (bvslt |sum::n@5| (_ bv1 32))))(let ((.def_118 (not .def_116)))(let ((.def_618 (and .def_118 .def_617)))(let ((.def_126 (bvadd (_ bv1 32) |sum::m@5|)))(let ((.def_128 (= .def_126 |sum::m__param__@6|)))(let ((.def_122 (bvadd (_ bv4294967295 32) |sum::n@5|)))(let ((.def_124 (= .def_122 |sum::n__param__@6|)))(let ((.def_129 (and .def_124 .def_128)))(let ((.def_619 (and .def_129 .def_618)))(let ((.def_133 (= |sum::m__param__@6| |sum::m@6|)))(let ((.def_131 (= |sum::n__param__@6| |sum::n@6|)))(let ((.def_134 (and .def_131 .def_133)))(let ((.def_620 (and .def_134 .def_619)))(let ((.def_135 (bvslt |sum::n@6| (_ bv1 32))))(let ((.def_137 (not .def_135)))(let ((.def_621 (and .def_137 .def_620)))(let ((.def_145 (bvadd (_ bv1 32) |sum::m@6|)))(let ((.def_147 (= .def_145 |sum::m__param__@7|)))(let ((.def_141 (bvadd (_ bv4294967295 32) |sum::n@6|)))(let ((.def_143 (= .def_141 |sum::n__param__@7|)))(let ((.def_148 (and .def_143 .def_147)))(let ((.def_622 (and .def_148 .def_621)))(let ((.def_152 (= |sum::m__param__@7| |sum::m@7|)))(let ((.def_150 (= |sum::n__param__@7| |sum::n@7|)))(let ((.def_153 (and .def_150 .def_152)))(let ((.def_623 (and .def_153 .def_622)))(let ((.def_154 (bvslt |sum::n@7| (_ bv1 32))))(let ((.def_156 (not .def_154)))(let ((.def_624 (and .def_156 .def_623)))(let ((.def_164 (bvadd (_ bv1 32) |sum::m@7|)))(let ((.def_166 (= .def_164 |sum::m__param__@8|)))(let ((.def_160 (bvadd (_ bv4294967295 32) |sum::n@7|)))(let ((.def_162 (= .def_160 |sum::n__param__@8|)))(let ((.def_167 (and .def_162 .def_166)))(let ((.def_625 (and .def_167 .def_624)))(let ((.def_171 (= |sum::m__param__@8| |sum::m@8|)))(let ((.def_169 (= |sum::n__param__@8| |sum::n@8|)))(let ((.def_172 (and .def_169 .def_171)))(let ((.def_626 (and .def_172 .def_625)))(let ((.def_173 (bvslt |sum::n@8| (_ bv1 32))))(let ((.def_175 (not .def_173)))(let ((.def_627 (and .def_175 .def_626)))(let ((.def_183 (bvadd (_ bv1 32) |sum::m@8|)))(let ((.def_185 (= .def_183 |sum::m__param__@9|)))(let ((.def_179 (bvadd (_ bv4294967295 32) |sum::n@8|)))(let ((.def_181 (= .def_179 |sum::n__param__@9|)))(let ((.def_186 (and .def_181 .def_185)))(let ((.def_628 (and .def_186 .def_627)))(let ((.def_190 (= |sum::m__param__@9| |sum::m@9|)))(let ((.def_188 (= |sum::n__param__@9| |sum::n@9|)))(let ((.def_191 (and .def_188 .def_190)))(let ((.def_629 (and .def_191 .def_628)))(let ((.def_192 (bvslt |sum::n@9| (_ bv1 32))))(let ((.def_194 (not .def_192)))(let ((.def_630 (and .def_194 .def_629)))(let ((.def_202 (bvadd (_ bv1 32) |sum::m@9|)))(let ((.def_204 (= .def_202 |sum::m__param__@10|)))(let ((.def_198 (bvadd (_ bv4294967295 32) |sum::n@9|)))(let ((.def_200 (= .def_198 |sum::n__param__@10|)))(let ((.def_205 (and .def_200 .def_204)))(let ((.def_631 (and .def_205 .def_630)))(let ((.def_209 (= |sum::m__param__@10| |sum::m@10|)))(let ((.def_207 (= |sum::n__param__@10| |sum::n@10|)))(let ((.def_210 (and .def_207 .def_209)))(let ((.def_632 (and .def_210 .def_631)))(let ((.def_211 (bvslt |sum::n@10| (_ bv1 32))))(let ((.def_213 (not .def_211)))(let ((.def_633 (and .def_213 .def_632)))(let ((.def_221 (bvadd (_ bv1 32) |sum::m@10|)))(let ((.def_223 (= .def_221 |sum::m__param__@11|)))(let ((.def_217 (bvadd (_ bv4294967295 32) |sum::n@10|)))(let ((.def_219 (= .def_217 |sum::n__param__@11|)))(let ((.def_224 (and .def_219 .def_223)))(let ((.def_634 (and .def_224 .def_633)))(let ((.def_228 (= |sum::m__param__@11| |sum::m@11|)))(let ((.def_226 (= |sum::n__param__@11| |sum::n@11|)))(let ((.def_229 (and .def_226 .def_228)))(let ((.def_635 (and .def_229 .def_634)))(let ((.def_230 (bvslt |sum::n@11| (_ bv1 32))))(let ((.def_232 (not .def_230)))(let ((.def_636 (and .def_232 .def_635)))(let ((.def_240 (bvadd (_ bv1 32) |sum::m@11|)))(let ((.def_242 (= .def_240 |sum::m__param__@12|)))(let ((.def_236 (bvadd (_ bv4294967295 32) |sum::n@11|)))(let ((.def_238 (= .def_236 |sum::n__param__@12|)))(let ((.def_243 (and .def_238 .def_242)))(let ((.def_637 (and .def_243 .def_636)))(let ((.def_247 (= |sum::m__param__@12| |sum::m@12|)))(let ((.def_245 (= |sum::n__param__@12| |sum::n@12|)))(let ((.def_248 (and .def_245 .def_247)))(let ((.def_638 (and .def_248 .def_637)))(let ((.def_249 (bvslt |sum::n@12| (_ bv1 32))))(let ((.def_251 (not .def_249)))(let ((.def_639 (and .def_251 .def_638)))(let ((.def_259 (bvadd (_ bv1 32) |sum::m@12|)))(let ((.def_261 (= .def_259 |sum::m__param__@13|)))(let ((.def_255 (bvadd (_ bv4294967295 32) |sum::n@12|)))(let ((.def_257 (= .def_255 |sum::n__param__@13|)))(let ((.def_262 (and .def_257 .def_261)))(let ((.def_640 (and .def_262 .def_639)))(let ((.def_266 (= |sum::m__param__@13| |sum::m@13|)))(let ((.def_264 (= |sum::n__param__@13| |sum::n@13|)))(let ((.def_267 (and .def_264 .def_266)))(let ((.def_641 (and .def_267 .def_640)))(let ((.def_268 (bvslt |sum::n@13| (_ bv1 32))))(let ((.def_270 (not .def_268)))(let ((.def_642 (and .def_270 .def_641)))(let ((.def_278 (bvadd (_ bv1 32) |sum::m@13|)))(let ((.def_280 (= .def_278 |sum::m__param__@14|)))(let ((.def_274 (bvadd (_ bv4294967295 32) |sum::n@13|)))(let ((.def_276 (= .def_274 |sum::n__param__@14|)))(let ((.def_281 (and .def_276 .def_280)))(let ((.def_643 (and .def_281 .def_642)))(let ((.def_285 (= |sum::m__param__@14| |sum::m@14|)))(let ((.def_283 (= |sum::n__param__@14| |sum::n@14|)))(let ((.def_286 (and .def_283 .def_285)))(let ((.def_644 (and .def_286 .def_643)))(let ((.def_287 (bvslt |sum::n@14| (_ bv1 32))))(let ((.def_289 (not .def_287)))(let ((.def_645 (and .def_289 .def_644)))(let ((.def_297 (bvadd (_ bv1 32) |sum::m@14|)))(let ((.def_299 (= .def_297 |sum::m__param__@15|)))(let ((.def_293 (bvadd (_ bv4294967295 32) |sum::n@14|)))(let ((.def_295 (= .def_293 |sum::n__param__@15|)))(let ((.def_300 (and .def_295 .def_299)))(let ((.def_646 (and .def_300 .def_645)))(let ((.def_304 (= |sum::m__param__@15| |sum::m@15|)))(let ((.def_302 (= |sum::n__param__@15| |sum::n@15|)))(let ((.def_305 (and .def_302 .def_304)))(let ((.def_647 (and .def_305 .def_646)))(let ((.def_306 (bvslt |sum::n@15| (_ bv1 32))))(let ((.def_308 (not .def_306)))(let ((.def_648 (and .def_308 .def_647)))(let ((.def_316 (bvadd (_ bv1 32) |sum::m@15|)))(let ((.def_318 (= .def_316 |sum::m__param__@16|)))(let ((.def_312 (bvadd (_ bv4294967295 32) |sum::n@15|)))(let ((.def_314 (= .def_312 |sum::n__param__@16|)))(let ((.def_319 (and .def_314 .def_318)))(let ((.def_649 (and .def_319 .def_648)))(let ((.def_323 (= |sum::m__param__@16| |sum::m@16|)))(let ((.def_321 (= |sum::n__param__@16| |sum::n@16|)))(let ((.def_324 (and .def_321 .def_323)))(let ((.def_650 (and .def_324 .def_649)))(let ((.def_325 (bvslt |sum::n@16| (_ bv1 32))))(let ((.def_327 (not .def_325)))(let ((.def_651 (and .def_327 .def_650)))(let ((.def_335 (bvadd (_ bv1 32) |sum::m@16|)))(let ((.def_337 (= .def_335 |sum::m__param__@17|)))(let ((.def_331 (bvadd (_ bv4294967295 32) |sum::n@16|)))(let ((.def_333 (= .def_331 |sum::n__param__@17|)))(let ((.def_338 (and .def_333 .def_337)))(let ((.def_652 (and .def_338 .def_651)))(let ((.def_342 (= |sum::m__param__@17| |sum::m@17|)))(let ((.def_340 (= |sum::n__param__@17| |sum::n@17|)))(let ((.def_343 (and .def_340 .def_342)))(let ((.def_653 (and .def_343 .def_652)))(let ((.def_344 (bvslt |sum::n@17| (_ bv1 32))))(let ((.def_346 (not .def_344)))(let ((.def_654 (and .def_346 .def_653)))(let ((.def_354 (bvadd (_ bv1 32) |sum::m@17|)))(let ((.def_356 (= .def_354 |sum::m__param__@18|)))(let ((.def_350 (bvadd (_ bv4294967295 32) |sum::n@17|)))(let ((.def_352 (= .def_350 |sum::n__param__@18|)))(let ((.def_357 (and .def_352 .def_356)))(let ((.def_655 (and .def_357 .def_654)))(let ((.def_361 (= |sum::m__param__@18| |sum::m@18|)))(let ((.def_359 (= |sum::n__param__@18| |sum::n@18|)))(let ((.def_362 (and .def_359 .def_361)))(let ((.def_656 (and .def_362 .def_655)))(let ((.def_363 (bvslt |sum::n@18| (_ bv1 32))))(let ((.def_365 (not .def_363)))(let ((.def_657 (and .def_365 .def_656)))(let ((.def_373 (bvadd (_ bv1 32) |sum::m@18|)))(let ((.def_375 (= .def_373 |sum::m__param__@19|)))(let ((.def_369 (bvadd (_ bv4294967295 32) |sum::n@18|)))(let ((.def_371 (= .def_369 |sum::n__param__@19|)))(let ((.def_376 (and .def_371 .def_375)))(let ((.def_658 (and .def_376 .def_657)))(let ((.def_380 (= |sum::m__param__@19| |sum::m@19|)))(let ((.def_378 (= |sum::n__param__@19| |sum::n@19|)))(let ((.def_381 (and .def_378 .def_380)))(let ((.def_659 (and .def_381 .def_658)))(let ((.def_382 (bvslt |sum::n@19| (_ bv1 32))))(let ((.def_384 (not .def_382)))(let ((.def_660 (and .def_384 .def_659)))(let ((.def_392 (bvadd (_ bv1 32) |sum::m@19|)))(let ((.def_394 (= .def_392 |sum::m__param__@20|)))(let ((.def_388 (bvadd (_ bv4294967295 32) |sum::n@19|)))(let ((.def_390 (= .def_388 |sum::n__param__@20|)))(let ((.def_395 (and .def_390 .def_394)))(let ((.def_661 (and .def_395 .def_660)))(let ((.def_399 (= |sum::m__param__@20| |sum::m@20|)))(let ((.def_397 (= |sum::n__param__@20| |sum::n@20|)))(let ((.def_400 (and .def_397 .def_399)))(let ((.def_662 (and .def_400 .def_661)))(let ((.def_401 (bvslt |sum::n@20| (_ bv1 32))))(let ((.def_403 (not .def_401)))(let ((.def_663 (and .def_403 .def_662)))(let ((.def_411 (bvadd (_ bv1 32) |sum::m@20|)))(let ((.def_413 (= .def_411 |sum::m__param__@21|)))(let ((.def_407 (bvadd (_ bv4294967295 32) |sum::n@20|)))(let ((.def_409 (= .def_407 |sum::n__param__@21|)))(let ((.def_414 (and .def_409 .def_413)))(let ((.def_664 (and .def_414 .def_663)))(let ((.def_418 (= |sum::m__param__@21| |sum::m@21|)))(let ((.def_416 (= |sum::n__param__@21| |sum::n@21|)))(let ((.def_419 (and .def_416 .def_418)))(let ((.def_665 (and .def_419 .def_664)))(let ((.def_420 (bvslt |sum::n@21| (_ bv1 32))))(let ((.def_422 (not .def_420)))(let ((.def_666 (and .def_422 .def_665)))(let ((.def_430 (bvadd (_ bv1 32) |sum::m@21|)))(let ((.def_432 (= .def_430 |sum::m__param__@22|)))(let ((.def_426 (bvadd (_ bv4294967295 32) |sum::n@21|)))(let ((.def_428 (= .def_426 |sum::n__param__@22|)))(let ((.def_433 (and .def_428 .def_432)))(let ((.def_667 (and .def_433 .def_666)))(let ((.def_437 (= |sum::m__param__@22| |sum::m@22|)))(let ((.def_435 (= |sum::n__param__@22| |sum::n@22|)))(let ((.def_438 (and .def_435 .def_437)))(let ((.def_668 (and .def_438 .def_667)))(let ((.def_439 (bvslt |sum::n@22| (_ bv1 32))))(let ((.def_669 (and .def_439 .def_668)))(let ((.def_442 (bvadd |sum::n@22| |sum::m@22|)))(let ((.def_444 (= .def_442 |sum::iVar1@23|)))(let ((.def_670 (and .def_444 .def_669)))(let ((.def_446 (= |sum::__retval__@2| |sum::iVar1@23|)))(let ((.def_671 (and .def_446 .def_670)))(let ((.def_528 (= |sum::__retval__@2| |sum::iVar1@25|)))(let ((.def_672 (and .def_528 .def_671)))(let ((.def_529 (= |sum::__retval__@3| |sum::iVar1@25|)))(let ((.def_673 (and .def_529 .def_672)))(let ((.def_531 (= |sum::__retval__@3| |sum::iVar1@27|)))(let ((.def_674 (and .def_531 .def_673)))(let ((.def_532 (= |sum::__retval__@4| |sum::iVar1@27|)))(let ((.def_675 (and .def_532 .def_674)))(let ((.def_534 (= |sum::__retval__@4| |sum::iVar1@29|)))(let ((.def_676 (and .def_534 .def_675)))(let ((.def_535 (= |sum::__retval__@5| |sum::iVar1@29|)))(let ((.def_677 (and .def_535 .def_676)))(let ((.def_537 (= |sum::__retval__@5| |sum::iVar1@31|)))(let ((.def_678 (and .def_537 .def_677)))(let ((.def_538 (= |sum::__retval__@6| |sum::iVar1@31|)))(let ((.def_679 (and .def_538 .def_678)))(let ((.def_540 (= |sum::__retval__@6| |sum::iVar1@33|)))(let ((.def_680 (and .def_540 .def_679)))(let ((.def_541 (= |sum::__retval__@7| |sum::iVar1@33|)))(let ((.def_681 (and .def_541 .def_680)))(let ((.def_543 (= |sum::__retval__@7| |sum::iVar1@35|)))(let ((.def_682 (and .def_543 .def_681)))(let ((.def_544 (= |sum::__retval__@8| |sum::iVar1@35|)))(let ((.def_683 (and .def_544 .def_682)))(let ((.def_546 (= |sum::__retval__@8| |sum::iVar1@37|)))(let ((.def_684 (and .def_546 .def_683)))(let ((.def_547 (= |sum::__retval__@9| |sum::iVar1@37|)))(let ((.def_685 (and .def_547 .def_684)))(let ((.def_549 (= |sum::__retval__@9| |sum::iVar1@39|)))(let ((.def_686 (and .def_549 .def_685)))(let ((.def_550 (= |sum::__retval__@10| |sum::iVar1@39|)))(let ((.def_687 (and .def_550 .def_686)))(let ((.def_552 (= |sum::__retval__@10| |sum::iVar1@41|)))(let ((.def_688 (and .def_552 .def_687)))(let ((.def_553 (= |sum::__retval__@11| |sum::iVar1@41|)))(let ((.def_689 (and .def_553 .def_688)))(let ((.def_555 (= |sum::__retval__@11| |sum::iVar1@43|)))(let ((.def_690 (and .def_555 .def_689)))(let ((.def_556 (= |sum::__retval__@12| |sum::iVar1@43|)))(let ((.def_691 (and .def_556 .def_690)))(let ((.def_558 (= |sum::__retval__@12| |sum::iVar1@45|)))(let ((.def_692 (and .def_558 .def_691)))(let ((.def_559 (= |sum::__retval__@13| |sum::iVar1@45|)))(let ((.def_693 (and .def_559 .def_692)))(let ((.def_561 (= |sum::__retval__@13| |sum::iVar1@47|)))(let ((.def_694 (and .def_561 .def_693)))(let ((.def_562 (= |sum::__retval__@14| |sum::iVar1@47|)))(let ((.def_695 (and .def_562 .def_694)))(let ((.def_564 (= |sum::__retval__@14| |sum::iVar1@49|)))(let ((.def_696 (and .def_564 .def_695)))(let ((.def_565 (= |sum::__retval__@15| |sum::iVar1@49|)))(let ((.def_697 (and .def_565 .def_696)))(let ((.def_567 (= |sum::__retval__@15| |sum::iVar1@51|)))(let ((.def_698 (and .def_567 .def_697)))(let ((.def_568 (= |sum::__retval__@16| |sum::iVar1@51|)))(let ((.def_699 (and .def_568 .def_698)))(let ((.def_570 (= |sum::__retval__@16| |sum::iVar1@53|)))(let ((.def_700 (and .def_570 .def_699)))(let ((.def_571 (= |sum::__retval__@17| |sum::iVar1@53|)))(let ((.def_701 (and .def_571 .def_700)))(let ((.def_573 (= |sum::__retval__@17| |sum::iVar1@55|)))(let ((.def_702 (and .def_573 .def_701)))(let ((.def_574 (= |sum::__retval__@18| |sum::iVar1@55|)))(let ((.def_703 (and .def_574 .def_702)))(let ((.def_576 (= |sum::__retval__@18| |sum::iVar1@57|)))(let ((.def_704 (and .def_576 .def_703)))(let ((.def_577 (= |sum::__retval__@19| |sum::iVar1@57|)))(let ((.def_705 (and .def_577 .def_704)))(let ((.def_579 (= |sum::__retval__@19| |sum::iVar1@59|)))(let ((.def_706 (and .def_579 .def_705)))(let ((.def_580 (= |sum::__retval__@20| |sum::iVar1@59|)))(let ((.def_707 (and .def_580 .def_706)))(let ((.def_582 (= |sum::__retval__@20| |sum::iVar1@61|)))(let ((.def_708 (and .def_582 .def_707)))(let ((.def_583 (= |sum::__retval__@21| |sum::iVar1@61|)))(let ((.def_709 (and .def_583 .def_708)))(let ((.def_585 (= |sum::__retval__@21| |sum::iVar1@63|)))(let ((.def_710 (and .def_585 .def_709)))(let ((.def_586 (= |sum::__retval__@22| |sum::iVar1@63|)))(let ((.def_711 (and .def_586 .def_710)))(let ((.def_588 (= |sum::__retval__@22| |main::iVar1@24|)))(let ((.def_712 (and .def_588 .def_711)))(let ((.def_589 (= |main::iVar1@24| (_ bv20 32))))(let ((.def_713 (and .def_589 .def_712))).def_713)))))))))))))))))))))))))))))))))))))))))))))))))))))))))))))))))))))))))))))))))))))))))))))))))))))))))))))))))))))))))))))))))))))))))))))))))))))))))))))))))))))))))))))))))))))))))))))))))))))))))))))))))))))))))))))))))))))))))))))))))))))))))))))))))))))))))))))))))))))))))))))))))))))))))))))))))))))))))))))))))))))))))))))))))))))))))))))))))))))))